c turning on binary mode checking
c parsing input formula with 202048 variables and 780990 clauses
c finished parsing, read 16532836 bytes from proof file
c detected empty clause; start verification via backward checking
c 8681 of 780990 clauses in core                            
c 5999 of 452093 lemmas in core using 78401 resolution steps
c 0 RAT lemmas in core; 588 redundant literals in core lemmas
s VERIFIED
c verification time: 2.148 seconds
